
Gurobi 6.5.2 (linux64) logging started Mon Oct 31 16:47:48 2016


Gurobi 6.5.2 (linux64) logging started Mon Oct 31 16:51:37 2016


Gurobi 6.5.2 (linux64) logging started Mon Oct 31 16:59:02 2016


Gurobi 6.5.2 (linux64) logging started Mon Oct 31 17:11:45 2016


Gurobi 6.5.2 (linux64) logging started Mon Oct 31 17:12:29 2016


Gurobi 6.5.2 (linux64) logging started Wed Nov  2 15:37:20 2016


Gurobi 6.5.2 (linux64) logging started Mon Nov  7 12:33:58 2016


Gurobi 6.5.2 (linux64) logging started Mon Nov  7 12:38:34 2016


Gurobi 6.5.2 (linux64) logging started Mon Nov  7 12:42:59 2016


Gurobi 6.5.2 (linux64) logging started Mon Nov  7 23:03:24 2016


Gurobi 6.5.2 (linux64) logging started Thu Nov 10 17:14:13 2016


Gurobi 6.5.2 (linux64) logging started Thu Nov 10 17:16:36 2016


Gurobi 6.5.2 (linux64) logging started Thu Nov 10 17:31:26 2016


Gurobi 6.5.2 (linux64) logging started Thu Nov 10 17:34:49 2016


Gurobi 6.5.2 (linux64) logging started Sat Nov 12 15:05:55 2016


Gurobi 6.5.2 (linux64) logging started Sat Nov 12 15:06:38 2016


Gurobi 6.5.2 (linux64) logging started Sat Nov 12 15:07:12 2016


Gurobi 6.5.2 (linux64) logging started Sat Nov 12 15:08:49 2016


Gurobi 6.5.2 (linux64) logging started Sat Nov 12 15:09:21 2016


Gurobi 6.5.2 (linux64) logging started Sat Nov 12 15:10:02 2016


Gurobi 6.5.2 (linux64) logging started Sat Nov 12 15:10:33 2016


Gurobi 6.5.2 (linux64) logging started Sat Nov 12 15:11:08 2016


Gurobi 6.5.2 (linux64) logging started Sat Nov 12 15:12:46 2016


Gurobi 6.5.2 (linux64) logging started Sat Nov 12 15:14:54 2016


Gurobi 6.5.2 (linux64) logging started Sat Nov 12 15:17:36 2016


Gurobi 6.5.2 (linux64) logging started Sat Nov 12 15:18:35 2016


Gurobi 6.5.2 (linux64) logging started Sat Nov 12 15:19:27 2016


Gurobi 6.5.2 (linux64) logging started Sat Nov 12 15:20:05 2016


Gurobi 6.5.2 (linux64) logging started Sat Nov 12 15:21:06 2016


Gurobi 6.5.2 (linux64) logging started Sat Nov 12 16:39:07 2016


Gurobi 6.5.2 (linux64) logging started Sat Nov 12 16:41:14 2016


Gurobi 6.5.2 (linux64) logging started Sat Nov 12 16:47:58 2016


Gurobi 6.5.2 (linux64) logging started Sun Nov 13 16:41:47 2016


Gurobi 6.5.2 (linux64) logging started Sun Nov 13 16:44:13 2016


Gurobi 6.5.2 (linux64) logging started Sun Nov 13 16:44:44 2016


Gurobi 6.5.2 (linux64) logging started Sun Nov 13 16:45:34 2016


Gurobi 6.5.2 (linux64) logging started Sun Nov 13 16:46:28 2016


Gurobi 6.5.2 (linux64) logging started Sun Nov 13 16:48:03 2016


Gurobi 6.5.2 (linux64) logging started Sun Nov 13 16:48:46 2016


Gurobi 6.5.2 (linux64) logging started Sun Nov 13 16:49:09 2016


Gurobi 6.5.2 (linux64) logging started Sun Nov 13 16:51:18 2016


Gurobi 6.5.2 (linux64) logging started Sun Nov 13 16:51:51 2016


Gurobi 6.5.2 (linux64) logging started Sun Nov 13 16:52:16 2016


Gurobi 6.5.2 (linux64) logging started Sun Nov 13 16:53:24 2016


Gurobi 6.5.2 (linux64) logging started Sun Nov 13 16:54:57 2016


Gurobi 6.5.2 (linux64) logging started Sun Nov 13 16:55:41 2016


Gurobi 6.5.2 (linux64) logging started Sun Nov 13 16:56:04 2016


Gurobi 6.5.2 (linux64) logging started Sun Nov 13 16:56:44 2016


Gurobi 6.5.2 (linux64) logging started Sun Nov 13 17:00:07 2016


Gurobi 6.5.2 (linux64) logging started Sun Nov 13 17:00:58 2016


Gurobi 6.5.2 (linux64) logging started Sun Nov 13 17:02:47 2016


Gurobi 6.5.2 (linux64) logging started Sun Nov 13 17:03:24 2016


Gurobi 6.5.2 (linux64) logging started Sun Nov 13 17:04:00 2016


Gurobi 6.5.2 (linux64) logging started Sun Nov 13 17:04:50 2016


Gurobi 6.5.2 (linux64) logging started Sun Nov 13 17:05:33 2016


Gurobi 6.5.2 (linux64) logging started Sun Nov 13 17:06:15 2016


Gurobi 6.5.2 (linux64) logging started Sun Nov 13 17:07:47 2016


Gurobi 6.5.2 (linux64) logging started Sun Nov 13 17:09:38 2016


Gurobi 6.5.2 (linux64) logging started Sun Nov 13 17:10:20 2016


Gurobi 6.5.2 (linux64) logging started Sun Nov 13 17:10:57 2016


Gurobi 6.5.2 (linux64) logging started Sun Nov 13 17:12:25 2016


Gurobi 6.5.2 (linux64) logging started Sun Nov 13 17:14:54 2016


Gurobi 6.5.2 (linux64) logging started Sun Nov 13 22:47:40 2016


Gurobi 6.5.2 (linux64) logging started Sun Nov 13 22:54:26 2016


Gurobi 6.5.2 (linux64) logging started Sun Nov 13 22:56:59 2016


Gurobi 6.5.2 (linux64) logging started Sun Nov 13 22:59:03 2016


Gurobi 6.5.2 (linux64) logging started Sun Nov 13 22:59:42 2016


Gurobi 6.5.2 (linux64) logging started Sun Nov 13 23:01:59 2016


Gurobi 6.5.2 (linux64) logging started Sun Nov 13 23:07:37 2016


Gurobi 6.5.2 (linux64) logging started Sun Nov 13 23:35:12 2016


Gurobi 6.5.2 (linux64) logging started Sun Nov 13 23:44:44 2016


Gurobi 6.5.2 (linux64) logging started Sun Nov 13 23:48:19 2016


Gurobi 6.5.2 (linux64) logging started Mon Nov 14 13:46:36 2016


Gurobi 6.5.2 (linux64) logging started Mon Nov 14 13:47:08 2016


Gurobi 6.5.2 (linux64) logging started Mon Nov 14 13:47:42 2016


Gurobi 6.5.2 (linux64) logging started Mon Nov 14 13:59:34 2016


Gurobi 6.5.2 (linux64) logging started Mon Nov 14 14:00:51 2016


Gurobi 6.5.2 (linux64) logging started Mon Nov 14 15:52:02 2016


Gurobi 6.5.2 (linux64) logging started Mon Nov 14 15:59:11 2016


Gurobi 6.5.2 (linux64) logging started Mon Nov 14 16:52:52 2016


Gurobi 6.5.2 (linux64) logging started Mon Nov 14 18:39:31 2016


Gurobi 6.5.2 (linux64) logging started Mon Nov 14 18:40:26 2016


Gurobi 6.5.2 (linux64) logging started Mon Nov 14 18:42:24 2016


Gurobi 6.5.2 (linux64) logging started Mon Nov 14 18:45:20 2016


Gurobi 6.5.2 (linux64) logging started Mon Nov 14 19:07:32 2016


Gurobi 6.5.2 (linux64) logging started Mon Nov 14 19:12:26 2016


Gurobi 6.5.2 (linux64) logging started Mon Nov 14 19:13:22 2016


Gurobi 6.5.2 (linux64) logging started Mon Nov 14 19:19:46 2016


Gurobi 6.5.2 (linux64) logging started Mon Nov 14 19:20:51 2016


Gurobi 6.5.2 (linux64) logging started Mon Nov 14 19:21:46 2016


Gurobi 6.5.2 (linux64) logging started Mon Nov 14 19:22:46 2016


Gurobi 6.5.2 (linux64) logging started Mon Nov 14 19:23:26 2016


Gurobi 6.5.2 (linux64) logging started Mon Nov 14 19:26:56 2016


Gurobi 6.5.2 (linux64) logging started Mon Nov 14 19:29:08 2016


Gurobi 6.5.2 (linux64) logging started Mon Nov 14 19:29:44 2016


Gurobi 6.5.2 (linux64) logging started Mon Nov 14 19:31:05 2016


Gurobi 6.5.2 (linux64) logging started Mon Nov 14 19:32:45 2016


Gurobi 6.5.2 (linux64) logging started Mon Nov 14 19:39:48 2016


Gurobi 6.5.2 (linux64) logging started Mon Nov 14 19:40:07 2016


Gurobi 6.5.2 (linux64) logging started Mon Nov 14 19:41:02 2016


Gurobi 6.5.2 (linux64) logging started Mon Nov 14 19:48:32 2016


Gurobi 6.5.2 (linux64) logging started Mon Nov 14 19:49:16 2016


Gurobi 6.5.2 (linux64) logging started Mon Nov 14 19:58:44 2016


Gurobi 6.5.2 (linux64) logging started Mon Nov 14 20:12:39 2016


Gurobi 6.5.2 (linux64) logging started Mon Nov 14 20:21:10 2016


Gurobi 6.5.2 (linux64) logging started Mon Nov 14 22:43:50 2016


Gurobi 6.5.2 (linux64) logging started Mon Nov 14 23:07:30 2016


Gurobi 6.5.2 (linux64) logging started Tue Nov 15 18:44:08 2016


Gurobi 6.5.2 (linux64) logging started Tue Nov 15 18:56:31 2016


Gurobi 6.5.2 (linux64) logging started Tue Nov 15 19:07:26 2016


Gurobi 6.5.2 (linux64) logging started Tue Nov 15 22:52:09 2016


Gurobi 6.5.2 (linux64) logging started Thu Nov 17 22:57:24 2016


Gurobi 6.5.2 (linux64) logging started Mon Nov 28 23:11:23 2016


Gurobi 6.5.2 (linux64) logging started Tue Nov 29 17:57:28 2016


Gurobi 6.5.2 (linux64) logging started Wed Nov 30 14:16:43 2016


Gurobi 6.5.2 (linux64) logging started Wed Nov 30 17:13:00 2016


Gurobi 6.5.2 (linux64) logging started Wed Nov 30 17:41:49 2016


Gurobi 6.5.2 (linux64) logging started Wed Nov 30 21:58:44 2016


Gurobi 6.5.2 (linux64) logging started Wed Nov 30 22:02:31 2016


Gurobi 6.5.2 (linux64) logging started Wed Nov 30 22:06:58 2016


Gurobi 6.5.2 (linux64) logging started Wed Nov 30 22:11:24 2016


Gurobi 6.5.2 (linux64) logging started Wed Nov 30 22:13:14 2016


Gurobi 6.5.2 (linux64) logging started Wed Nov 30 22:23:22 2016


Gurobi 6.5.2 (linux64) logging started Wed Nov 30 22:24:30 2016


Gurobi 6.5.2 (linux64) logging started Wed Nov 30 22:25:18 2016


Gurobi 6.5.2 (linux64) logging started Wed Nov 30 22:32:28 2016


Gurobi 6.5.2 (linux64) logging started Wed Nov 30 22:41:02 2016


Gurobi 6.5.2 (linux64) logging started Wed Nov 30 22:41:51 2016


Gurobi 6.5.2 (linux64) logging started Wed Nov 30 22:44:00 2016


Gurobi 6.5.2 (linux64) logging started Wed Nov 30 22:58:16 2016


Gurobi 6.5.2 (linux64) logging started Wed Nov 30 23:03:59 2016


Gurobi 6.5.2 (linux64) logging started Wed Nov 30 23:06:56 2016


Gurobi 6.5.2 (linux64) logging started Wed Nov 30 23:16:51 2016


Gurobi 6.5.2 (linux64) logging started Wed Dec  7 16:24:38 2016


Gurobi 6.5.2 (linux64) logging started Tue Jan 10 14:04:26 2017


Gurobi 6.5.2 (linux64) logging started Thu Jan 12 17:09:43 2017


Gurobi 6.5.2 (linux64) logging started Thu Jan 12 17:38:54 2017

